Maximize
  0.0213210830820842 Z_129_0_0 + 0.7013304326589234 Z_129_0_1
   + 0.0428589207302007 Z_129_0_2 + 0.0628246761880631 Z_129_0_3
   + 0.0716648873407287 Z_129_0_4 + 0.00789955125301862 Z_202_0_0
   + 0.6097571753612071 Z_202_0_1 + 0.0289257186640329 Z_202_0_2
   + 0.00310266404914494 Z_202_0_3 + 0.2503148906725963 Z_202_0_4
   + 0.0114212329406695 Z_363_0_0 + 0.7566667880865459 Z_363_0_1
   + 0.00333109102478838 Z_363_0_2 + 0.00250251181777849 Z_363_0_3
   + 0.1260783761302178 Z_363_0_4 + 0.00888602913371843 Z_363_2_0
   + 0.00881861752814898 Z_363_2_1 + 0.0517537581356755 Z_363_2_2
   + 2.570961553938702e-04 Z_363_2_3 + 0.8302844990470633 Z_363_2_4
   + 7.17492e-05 Z_363_1_0 + 7.2271318880703277e-04 Z_363_1_1
   + 0.0185432856551763 Z_363_1_2 + 0.000141587 Z_363_1_3
   + 0.8805206650134383 Z_363_1_4 + 0.0158991633653988 Z_681_2_0
   + 0.0978203865157761 Z_681_2_1 + 0.0625205372928444 Z_681_2_2
   + 0.013339005624467 Z_681_2_3 + 0.7104209072015137 Z_681_2_4
   + 0.0221396345138249 Z_681_3_0 + 0.1999462823431693 Z_681_3_1
   + 0.1693707453974955 Z_681_3_2 + 0.049323915218325 Z_681_3_3
   + 0.4592194225271854 Z_681_3_4 + 0.00222769 Z_681_1_0
   + 0.0144748923254007 Z_681_1_1 + 0.1012243830355255 Z_681_1_2
   + 0.00136668794089058 Z_681_1_3 + 0.78070634660327 Z_681_1_4
   + 0.018831266129888 Z_549_0_0 + 0.6996441224560832 Z_549_0_1
   + 0.0185516614825967 Z_549_0_2 + 0.0165773015486146 Z_549_0_3
   + 0.1463956483828176 Z_549_0_4 + 6.2957828491166316e-04 Z_329_0_0
   + 0.0064075813465158 Z_329_0_1 + 0.850888463509613 Z_329_0_2
   + 0.0063761667149294 Z_329_0_3 + 0.0356982101440303 Z_329_0_4
   + 0.0126739154751887 Z_659_0_0 + 0.5738361174092201 Z_659_0_1
   + 0.00366852364001899 Z_659_0_2 + 0.000746118 Z_659_0_3
   + 0.3090753254506486 Z_659_0_4 + 0.00901461308540753 Z_520_0_0
   + 0.7189225261912613 Z_520_0_1 + 0.00758182939287156 Z_520_0_2
   + 5.9263631200459058e-04 Z_520_0_3 + 0.163888395018455 Z_520_0_4
   + 0.0100210881731571 Z_617_0_0 + 0.4378460012955259 Z_617_0_1
   + 0.0083817332041052 Z_617_0_2 + 0.00463238295421493 Z_617_0_3
   + 0.4391187943729968 Z_617_0_4 + 0.00546014589740733 Z_317_0_0
   + 0.7775287759034716 Z_317_0_1 + 0.012547358744345 Z_317_0_2
   + 0.000402866 Z_317_0_3 + 0.10406085350958 Z_317_0_4
   + 0.2031727120624875 Z_586_6_0 + 0.0614386644184601 Z_586_6_1
   + 0.00268023535080141 Z_586_6_2 + 0.0415883003372793 Z_586_6_3
   + 0.5911200878309716 Z_586_6_4 + 0.00268967039812836 Z_586_5_0
   + 0.0579478124998684 Z_586_5_1 + 0.0832218793096149 Z_586_5_2
   + 0.010104028736007 Z_586_5_3 + 0.7460366090563813 Z_586_5_4
   + 0.00268967039812836 Z_586_4_0 + 0.0579478124998684 Z_586_4_1
   + 0.0832218793096149 Z_586_4_2 + 0.010104028736007 Z_586_4_3
   + 0.7460366090563813 Z_586_4_4 + 0.0511821565305025 Z_586_2_0
   + 0.2907959287876072 Z_586_2_1 + 0.0112492738082754 Z_586_2_2
   + 0.0130176617003146 Z_586_2_3 + 0.5337549791733004 Z_586_2_4
   + 0.0118838487786655 Z_586_3_0 + 0.0103815176872806 Z_586_3_1
   + 0.4746302154296506 Z_586_3_2 + 0.00444914914943362 Z_586_3_3
   + 0.3986552689549696 Z_586_3_4 + 0.0233932119434456 Z_586_7_0
   + 0.1955516383719384 Z_586_7_1 + 0.00574463538142506 Z_586_7_2
   + 0.0442103050703345 Z_586_7_3 + 0.6311002092328565 Z_586_7_4
   + 5.912045508294759e-04 Z_586_1_0 + 0.00994248405834011 Z_586_1_1
   + 0.00525355205969269 Z_586_1_2 + 6.8687986233987295e-04 Z_586_1_3
   + 0.883525879468798 Z_586_1_4 + 0.0118838487786655 Z_230_2_0
   + 0.0103815176872806 Z_230_2_1 + 0.4746302154296506 Z_230_2_2
   + 0.00444914914943362 Z_230_2_3 + 0.3986552689549696 Z_230_2_4
   + 0.00869612625164179 Z_230_15_0 + 0.0346414709759677 Z_230_15_1
   + 0.00953382668759944 Z_230_15_2 + 0.0056106491610668 Z_230_15_3
   + 0.8415179269237244 Z_230_15_4 + 0.00748523359642114 Z_230_14_0
   + 0.0293879761561765 Z_230_14_1 + 0.0115687353193544 Z_230_14_2
   + 0.0578319800956932 Z_230_14_3 + 0.7937260748323548 Z_230_14_4
   + 0.0156272617344416 Z_230_3_0 + 0.0181335142519001 Z_230_3_1
   + 0.0113895338550684 Z_230_3_2 + 0.0392331597774545 Z_230_3_3
   + 0.8156165303811356 Z_230_3_4 + 0.00130588383722477 Z_230_1_0
   + 0.0141720163269957 Z_230_1_1 + 0.0105133824277412 Z_230_1_2
   + 0.00177391931356716 Z_230_1_3 + 0.8722347980944711 Z_230_1_4
   + 0.00215802834282579 Z_230_11_0 + 0.025590143842543 Z_230_11_1
   + 0.3119204672593267 Z_230_11_2 + 0.00682809527248993 Z_230_11_3
   + 0.5535032652828148 Z_230_11_4 + 0.00748523359642114 Z_230_4_0
   + 0.0293879761561765 Z_230_4_1 + 0.0115687353193544 Z_230_4_2
   + 0.0578319800956932 Z_230_4_3 + 0.7937260748323548 Z_230_4_4
   + 0.3102922981384964 Z_230_7_0 + 0.3508322679914831 Z_230_7_1
   + 0.0124929697930924 Z_230_7_2 + 0.0456688383808436 Z_230_7_3
   + 0.1807136256960846 Z_230_7_4 + 5.751706641334473e-04 Z_230_5_0
   + 0.0270052055266345 Z_230_5_1 + 0.0651566603538124 Z_230_5_2
   + 0.0113611597030709 Z_230_5_3 + 0.795901803752349 Z_230_5_4
   + 0.0114789838925404 Z_230_9_0 + 0.0871465657808873 Z_230_9_1
   + 0.0106143369729758 Z_230_9_2 + 0.0133059369919787 Z_230_9_3
   + 0.7774541763616178 Z_230_9_4 + 0.0328877675104289 Z_230_6_0
   + 0.1392549320441812 Z_230_6_1 + 0.0222645443405379 Z_230_6_2
   + 0.0112442562425392 Z_230_6_3 + 0.694348499862313 Z_230_6_4
   + 0.0100397201005529 Z_230_8_0 + 0.3186726668969062 Z_230_8_1
   + 0.00791357944915275 Z_230_8_2 + 0.00242804574677759 Z_230_8_3
   + 0.5609459878066106 Z_230_8_4 + 0.00215802834282579 Z_230_13_0
   + 0.025590143842543 Z_230_13_1 + 0.3119204672593267 Z_230_13_2
   + 0.00682809527248993 Z_230_13_3 + 0.5535032652828148 Z_230_13_4
   + 0.00682379326702885 Z_230_12_0 + 0.0939215402750033 Z_230_12_1
   + 0.00126541857030372 Z_230_12_2 + 0.013792644712391 Z_230_12_3
   + 0.7841966031752732 Z_230_12_4 + 0.00855638749785275 Z_441_0_0
   + 0.5497497649463858 Z_441_0_1 + 6.1874711554242849e-04 Z_441_0_2
   + 0.0231344268138776 Z_441_0_3 + 0.3179406736263413 Z_441_0_4
   + 0.00889586 Z_441_6_0 + 0.049738987329315 Z_441_6_1
   + 0.0060553095376107 Z_441_6_2 + 0.0299704747458859 Z_441_6_3
   + 0.8053393684458119 Z_441_6_4 + 2.9885852721425857e-04 Z_441_4_0
   + 6.8642450571366554e-04 Z_441_4_1 + 0.00400808673442321 Z_441_4_2
   + 7.85542e-05 Z_441_4_3 + 0.8949280759840067 Z_441_4_4
   + 0.0234434360730959 Z_441_7_0 + 0.0444315028671997 Z_441_7_1
   + 0.00545313666010742 Z_441_7_2 + 0.00119182419621769 Z_441_7_3
   + 0.8254801002033793 Z_441_7_4 + 0.00706300413451855 Z_441_2_0
   + 0.0181800856126968 Z_441_2_1 + 0.0667822571973024 Z_441_2_2
   + 5.0602545426477327e-04 Z_441_2_3 + 0.8074686276012175 Z_441_2_4
   + 2.9885852721425857e-04 Z_441_3_0 + 6.8642450571366554e-04 Z_441_3_1
   + 0.00400808673442321 Z_441_3_2 + 7.85542e-05 Z_441_3_3
   + 0.8949280759840067 Z_441_3_4 + 0.00633511427613706 Z_441_8_0
   + 0.1544923764057759 Z_441_8_1 + 0.00119035938051137 Z_441_8_2
   + 0.0245369189609215 Z_441_8_3 + 0.7134452309766541 Z_441_8_4
   + 0.0383169785415442 Z_441_5_0 + 0.0746310179887611 Z_441_5_1
   + 0.00779788761554572 Z_441_5_2 + 0.00121924713389658 Z_441_5_3
   + 0.7780348687202525 Z_441_5_4 + 3.55102e-05 Z_441_1_0
   + 0.000569889 Z_441_1_1 + 0.00911214187793382 Z_441_1_2
   + 2.3868169089904197e-04 Z_441_1_3 + 0.8900437771843994 Z_441_1_4
   + 1.1534341227111515e-04 Z_238_0_0 + 0.00368084525763241 Z_238_0_1
   + 0.848826664241236 Z_238_0_2 + 3.645577525631502e-04 Z_238_0_3
   + 0.0470125893362973 Z_238_0_4 + 0.0795527480471983 Z_721_0_0
   + 0.4869807463776709 Z_721_0_1 + 0.0246976478760011 Z_721_0_2
   + 0.1054426290211915 Z_721_0_3 + 0.2033262286779383 Z_721_0_4
   + 0.0933988328108261 Z_61_0_0 + 0.4278966587377504 Z_61_0_1
   + 0.00465001685984426 Z_61_0_2 + 0.0147167381254516 Z_61_0_3
   + 0.3593377534661276 Z_61_0_4 + 0.0130693437426262 Z_264_0_0
   + 0.7559378228906675 Z_264_0_1 + 0.00763757507267887 Z_264_0_2
   + 0.0128859712102904 Z_264_0_3 + 0.110469287083737 Z_264_0_4
   + 0.0147061082134288 Z_706_3_0 + 0.5702523036131197 Z_706_3_1
   + 0.1018153134509437 Z_706_3_2 + 0.0181982454556122 Z_706_3_3
   + 0.1950280292668954 Z_706_3_4 + 0.0265564372488061 Z_706_2_0
   + 0.2221532686630995 Z_706_2_1 + 0.0600015842774985 Z_706_2_2
   + 0.00711371528242846 Z_706_2_3 + 0.5841749945281675 Z_706_2_4
   + 0.0147061082134288 Z_706_0_0 + 0.5702523036131197 Z_706_0_1
   + 0.1018153134509437 Z_706_0_2 + 0.0181982454556122 Z_706_0_3
   + 0.1950280292668954 Z_706_0_4 + 0.00247428966721198 Z_706_1_0
   + 0.0124628911617911 Z_706_1_1 + 0.00729760829641533 Z_706_1_2
   + 0.00238670214161928 Z_706_1_3 + 0.8753785087329623 Z_706_1_4
   + 0.0415232343858113 Z_632_7_0 + 0.0953552401079541 Z_632_7_1
   + 0.0231959637289635 Z_632_7_2 + 0.0211183861087285 Z_632_7_3
   + 0.7188071756685428 Z_632_7_4 + 0.0031107168726017 Z_632_2_0
   + 0.0116831687146239 Z_632_2_1 + 0.0852830302594855 Z_632_2_2
   + 0.00987091316622057 Z_632_2_3 + 0.7900521709870685 Z_632_2_4
   + 0.0031107168726017 Z_632_6_0 + 0.0116831687146239 Z_632_6_1
   + 0.0852830302594855 Z_632_6_2 + 0.00987091316622057 Z_632_6_3
   + 0.7900521709870685 Z_632_6_4 + 0.0118838487786655 Z_632_1_0
   + 0.0103815176872806 Z_632_1_1 + 0.4746302154296506 Z_632_1_2
   + 0.00444914914943362 Z_632_1_3 + 0.3986552689549696 Z_632_1_4
   + 0.00166969862250193 Z_632_0_0 + 0.00165962129403091 Z_632_0_1
   + 0.0266529982461002 Z_632_0_2 + 0.00426234223466916 Z_632_0_3
   + 0.8657553396026979 Z_632_0_4 + 0.0455909519795667 Z_632_8_0
   + 0.221699375590979 Z_632_8_1 + 0.0580561601185746 Z_632_8_2
   + 0.00722199898319793 Z_632_8_3 + 0.5674315133276818 Z_632_8_4
   + 0.00271742512600474 Z_632_3_0 + 0.0170437183297766 Z_632_3_1
   + 0.1414269561701856 Z_632_3_2 + 0.00762262125303683 Z_632_3_3
   + 0.7311892791209962 Z_632_3_4 + 0.2989226552741461 Z_632_5_0
   + 0.4248075079768674 Z_632_5_1 + 0.00997768868864971 Z_632_5_2
   + 0.0359657802945286 Z_632_5_3 + 0.1303263677658082 Z_632_5_4
   + 0.00271742512600474 Z_632_4_0 + 0.0170437183297766 Z_632_4_1
   + 0.1414269561701856 Z_632_4_2 + 0.00762262125303683 Z_632_4_3
   + 0.7311892791209962 Z_632_4_4
Subject To
 constraint1_1290: Z_129_0_0 + Z_129_0_1 + Z_129_0_2 + Z_129_0_3
   + Z_129_0_4 <= 1
 constraint1_2020: Z_202_0_0 + Z_202_0_1 + Z_202_0_2 + Z_202_0_3
   + Z_202_0_4 <= 1
 constraint1_3630: Z_363_0_0 + Z_363_0_1 + Z_363_0_2 + Z_363_0_3
   + Z_363_0_4 <= 1
 constraint1_3632: Z_363_2_0 + Z_363_2_1 + Z_363_2_2 + Z_363_2_3
   + Z_363_2_4 <= 1
 constraint1_3631: Z_363_1_0 + Z_363_1_1 + Z_363_1_2 + Z_363_1_3
   + Z_363_1_4 <= 1
 constraint1_6812: Z_681_2_0 + Z_681_2_1 + Z_681_2_2 + Z_681_2_3
   + Z_681_2_4 <= 1
 constraint1_6813: Z_681_3_0 + Z_681_3_1 + Z_681_3_2 + Z_681_3_3
   + Z_681_3_4 <= 1
 constraint1_6811: Z_681_1_0 + Z_681_1_1 + Z_681_1_2 + Z_681_1_3
   + Z_681_1_4 <= 1
 constraint1_5490: Z_549_0_0 + Z_549_0_1 + Z_549_0_2 + Z_549_0_3
   + Z_549_0_4 <= 1
 constraint1_3290: Z_329_0_0 + Z_329_0_1 + Z_329_0_2 + Z_329_0_3
   + Z_329_0_4 <= 1
 constraint1_6590: Z_659_0_0 + Z_659_0_1 + Z_659_0_2 + Z_659_0_3
   + Z_659_0_4 <= 1
 constraint1_5200: Z_520_0_0 + Z_520_0_1 + Z_520_0_2 + Z_520_0_3
   + Z_520_0_4 <= 1
 constraint1_6170: Z_617_0_0 + Z_617_0_1 + Z_617_0_2 + Z_617_0_3
   + Z_617_0_4 <= 1
 constraint1_3170: Z_317_0_0 + Z_317_0_1 + Z_317_0_2 + Z_317_0_3
   + Z_317_0_4 <= 1
 constraint1_5866: Z_586_6_0 + Z_586_6_1 + Z_586_6_2 + Z_586_6_3
   + Z_586_6_4 <= 1
 constraint1_5865: Z_586_5_0 + Z_586_5_1 + Z_586_5_2 + Z_586_5_3
   + Z_586_5_4 <= 1
 constraint1_5864: Z_586_4_0 + Z_586_4_1 + Z_586_4_2 + Z_586_4_3
   + Z_586_4_4 <= 1
 constraint1_5862: Z_586_2_0 + Z_586_2_1 + Z_586_2_2 + Z_586_2_3
   + Z_586_2_4 <= 1
 constraint1_5863: Z_586_3_0 + Z_586_3_1 + Z_586_3_2 + Z_586_3_3
   + Z_586_3_4 <= 1
 constraint1_5867: Z_586_7_0 + Z_586_7_1 + Z_586_7_2 + Z_586_7_3
   + Z_586_7_4 <= 1
 constraint1_5861: Z_586_1_0 + Z_586_1_1 + Z_586_1_2 + Z_586_1_3
   + Z_586_1_4 <= 1
 constraint1_2302: Z_230_2_0 + Z_230_2_1 + Z_230_2_2 + Z_230_2_3
   + Z_230_2_4 <= 1
 constraint1_23015: Z_230_15_0 + Z_230_15_1 + Z_230_15_2 + Z_230_15_3
   + Z_230_15_4 <= 1
 constraint1_23014: Z_230_14_0 + Z_230_14_1 + Z_230_14_2 + Z_230_14_3
   + Z_230_14_4 <= 1
 constraint1_2303: Z_230_3_0 + Z_230_3_1 + Z_230_3_2 + Z_230_3_3
   + Z_230_3_4 <= 1
 constraint1_2301: Z_230_1_0 + Z_230_1_1 + Z_230_1_2 + Z_230_1_3
   + Z_230_1_4 <= 1
 constraint1_23011: Z_230_11_0 + Z_230_11_1 + Z_230_11_2 + Z_230_11_3
   + Z_230_11_4 <= 1
 constraint1_2304: Z_230_4_0 + Z_230_4_1 + Z_230_4_2 + Z_230_4_3
   + Z_230_4_4 <= 1
 constraint1_2307: Z_230_7_0 + Z_230_7_1 + Z_230_7_2 + Z_230_7_3
   + Z_230_7_4 <= 1
 constraint1_2305: Z_230_5_0 + Z_230_5_1 + Z_230_5_2 + Z_230_5_3
   + Z_230_5_4 <= 1
 constraint1_2309: Z_230_9_0 + Z_230_9_1 + Z_230_9_2 + Z_230_9_3
   + Z_230_9_4 <= 1
 constraint1_2306: Z_230_6_0 + Z_230_6_1 + Z_230_6_2 + Z_230_6_3
   + Z_230_6_4 <= 1
 constraint1_2308: Z_230_8_0 + Z_230_8_1 + Z_230_8_2 + Z_230_8_3
   + Z_230_8_4 <= 1
 constraint1_23013: Z_230_13_0 + Z_230_13_1 + Z_230_13_2 + Z_230_13_3
   + Z_230_13_4 <= 1
 constraint1_23012: Z_230_12_0 + Z_230_12_1 + Z_230_12_2 + Z_230_12_3
   + Z_230_12_4 <= 1
 constraint1_4410: Z_441_0_0 + Z_441_0_1 + Z_441_0_2 + Z_441_0_3
   + Z_441_0_4 <= 1
 constraint1_4416: Z_441_6_0 + Z_441_6_1 + Z_441_6_2 + Z_441_6_3
   + Z_441_6_4 <= 1
 constraint1_4414: Z_441_4_0 + Z_441_4_1 + Z_441_4_2 + Z_441_4_3
   + Z_441_4_4 <= 1
 constraint1_4417: Z_441_7_0 + Z_441_7_1 + Z_441_7_2 + Z_441_7_3
   + Z_441_7_4 <= 1
 constraint1_4412: Z_441_2_0 + Z_441_2_1 + Z_441_2_2 + Z_441_2_3
   + Z_441_2_4 <= 1
 constraint1_4413: Z_441_3_0 + Z_441_3_1 + Z_441_3_2 + Z_441_3_3
   + Z_441_3_4 <= 1
 constraint1_4418: Z_441_8_0 + Z_441_8_1 + Z_441_8_2 + Z_441_8_3
   + Z_441_8_4 <= 1
 constraint1_4415: Z_441_5_0 + Z_441_5_1 + Z_441_5_2 + Z_441_5_3
   + Z_441_5_4 <= 1
 constraint1_4411: Z_441_1_0 + Z_441_1_1 + Z_441_1_2 + Z_441_1_3
   + Z_441_1_4 <= 1
 constraint1_2380: Z_238_0_0 + Z_238_0_1 + Z_238_0_2 + Z_238_0_3
   + Z_238_0_4 <= 1
 constraint1_7210: Z_721_0_0 + Z_721_0_1 + Z_721_0_2 + Z_721_0_3
   + Z_721_0_4 <= 1
 constraint1_610: Z_61_0_0 + Z_61_0_1 + Z_61_0_2 + Z_61_0_3 + Z_61_0_4
   <= 1
 constraint1_2640: Z_264_0_0 + Z_264_0_1 + Z_264_0_2 + Z_264_0_3
   + Z_264_0_4 <= 1
 constraint1_7063: Z_706_3_0 + Z_706_3_1 + Z_706_3_2 + Z_706_3_3
   + Z_706_3_4 <= 1
 constraint1_7062: Z_706_2_0 + Z_706_2_1 + Z_706_2_2 + Z_706_2_3
   + Z_706_2_4 <= 1
 constraint1_7060: Z_706_0_0 + Z_706_0_1 + Z_706_0_2 + Z_706_0_3
   + Z_706_0_4 <= 1
 constraint1_7061: Z_706_1_0 + Z_706_1_1 + Z_706_1_2 + Z_706_1_3
   + Z_706_1_4 <= 1
 constraint1_6327: Z_632_7_0 + Z_632_7_1 + Z_632_7_2 + Z_632_7_3
   + Z_632_7_4 <= 1
 constraint1_6322: Z_632_2_0 + Z_632_2_1 + Z_632_2_2 + Z_632_2_3
   + Z_632_2_4 <= 1
 constraint1_6326: Z_632_6_0 + Z_632_6_1 + Z_632_6_2 + Z_632_6_3
   + Z_632_6_4 <= 1
 constraint1_6321: Z_632_1_0 + Z_632_1_1 + Z_632_1_2 + Z_632_1_3
   + Z_632_1_4 <= 1
 constraint1_6320: Z_632_0_0 + Z_632_0_1 + Z_632_0_2 + Z_632_0_3
   + Z_632_0_4 <= 1
 constraint1_6328: Z_632_8_0 + Z_632_8_1 + Z_632_8_2 + Z_632_8_3
   + Z_632_8_4 <= 1
 constraint1_6323: Z_632_3_0 + Z_632_3_1 + Z_632_3_2 + Z_632_3_3
   + Z_632_3_4 <= 1
 constraint1_6325: Z_632_5_0 + Z_632_5_1 + Z_632_5_2 + Z_632_5_3
   + Z_632_5_4 <= 1
 constraint1_6324: Z_632_4_0 + Z_632_4_1 + Z_632_4_2 + Z_632_4_3
   + Z_632_4_4 <= 1
 constraint2_580: <= 1
 constraint2_581: <= 1
 constraint2_582: <= 1
 constraint2_583: <= 1
 constraint2_7340: <= 1
 constraint2_7341: <= 1
 constraint2_7342: <= 1
 constraint2_7343: <= 1
 constraint2_1290: Z_129_0_0 <= 1
 constraint2_1291: Z_129_0_1 <= 1
 constraint2_1292: Z_129_0_2 <= 1
 constraint2_1293: Z_129_0_3 <= 1
 constraint2_2020: Z_202_0_0 <= 1
 constraint2_2021: Z_202_0_1 <= 1
 constraint2_2022: Z_202_0_2 <= 1
 constraint2_2023: Z_202_0_3 <= 1
 constraint2_3630: Z_363_0_0 + Z_363_2_0 + Z_363_1_0 <= 1
 constraint2_3631: Z_363_0_1 + Z_363_2_1 + Z_363_1_1 <= 1
 constraint2_3632: Z_363_0_2 + Z_363_2_2 + Z_363_1_2 <= 1
 constraint2_3633: Z_363_0_3 + Z_363_2_3 + Z_363_1_3 <= 1
 constraint2_6810: Z_681_2_0 + Z_681_3_0 + Z_681_1_0 <= 1
 constraint2_6811: Z_681_2_1 + Z_681_3_1 + Z_681_1_1 <= 1
 constraint2_6812: Z_681_2_2 + Z_681_3_2 + Z_681_1_2 <= 1
 constraint2_6813: Z_681_2_3 + Z_681_3_3 + Z_681_1_3 <= 1
 constraint2_5490: Z_549_0_0 <= 1
 constraint2_5491: Z_549_0_1 <= 1
 constraint2_5492: Z_549_0_2 <= 1
 constraint2_5493: Z_549_0_3 <= 1
 constraint2_3290: Z_329_0_0 <= 1
 constraint2_3291: Z_329_0_1 <= 1
 constraint2_3292: Z_329_0_2 <= 1
 constraint2_3293: Z_329_0_3 <= 1
 constraint2_6590: Z_659_0_0 <= 1
 constraint2_6591: Z_659_0_1 <= 1
 constraint2_6592: Z_659_0_2 <= 1
 constraint2_6593: Z_659_0_3 <= 1
 constraint2_5200: Z_520_0_0 <= 1
 constraint2_5201: Z_520_0_1 <= 1
 constraint2_5202: Z_520_0_2 <= 1
 constraint2_5203: Z_520_0_3 <= 1
 constraint2_6170: Z_617_0_0 <= 1
 constraint2_6171: Z_617_0_1 <= 1
 constraint2_6172: Z_617_0_2 <= 1
 constraint2_6173: Z_617_0_3 <= 1
 constraint2_3170: Z_317_0_0 <= 1
 constraint2_3171: Z_317_0_1 <= 1
 constraint2_3172: Z_317_0_2 <= 1
 constraint2_3173: Z_317_0_3 <= 1
 constraint2_5860: Z_586_6_0 + Z_586_5_0 + Z_586_4_0 + Z_586_2_0
   + Z_586_3_0 + Z_586_7_0 + Z_586_1_0 <= 1
 constraint2_5861: Z_586_6_1 + Z_586_5_1 + Z_586_4_1 + Z_586_2_1
   + Z_586_3_1 + Z_586_7_1 + Z_586_1_1 <= 1
 constraint2_5862: Z_586_6_2 + Z_586_5_2 + Z_586_4_2 + Z_586_2_2
   + Z_586_3_2 + Z_586_7_2 + Z_586_1_2 <= 1
 constraint2_5863: Z_586_6_3 + Z_586_5_3 + Z_586_4_3 + Z_586_2_3
   + Z_586_3_3 + Z_586_7_3 + Z_586_1_3 <= 1
 constraint2_2300: Z_230_2_0 + Z_230_15_0 + Z_230_14_0 + Z_230_3_0
   + Z_230_1_0 + Z_230_11_0 + Z_230_4_0 + Z_230_7_0 + Z_230_5_0 + Z_230_9_0
   + Z_230_6_0 + Z_230_8_0 + Z_230_13_0 + Z_230_12_0 <= 1
 constraint2_2301: Z_230_2_1 + Z_230_15_1 + Z_230_14_1 + Z_230_3_1
   + Z_230_1_1 + Z_230_11_1 + Z_230_4_1 + Z_230_7_1 + Z_230_5_1 + Z_230_9_1
   + Z_230_6_1 + Z_230_8_1 + Z_230_13_1 + Z_230_12_1 <= 1
 constraint2_2302: Z_230_2_2 + Z_230_15_2 + Z_230_14_2 + Z_230_3_2
   + Z_230_1_2 + Z_230_11_2 + Z_230_4_2 + Z_230_7_2 + Z_230_5_2 + Z_230_9_2
   + Z_230_6_2 + Z_230_8_2 + Z_230_13_2 + Z_230_12_2 <= 1
 constraint2_2303: Z_230_2_3 + Z_230_15_3 + Z_230_14_3 + Z_230_3_3
   + Z_230_1_3 + Z_230_11_3 + Z_230_4_3 + Z_230_7_3 + Z_230_5_3 + Z_230_9_3
   + Z_230_6_3 + Z_230_8_3 + Z_230_13_3 + Z_230_12_3 <= 1
 constraint2_2870: <= 1
 constraint2_2871: <= 1
 constraint2_2872: <= 1
 constraint2_2873: <= 1
 constraint2_6880: <= 1
 constraint2_6881: <= 1
 constraint2_6882: <= 1
 constraint2_6883: <= 1
 constraint2_4410: Z_441_0_0 + Z_441_6_0 + Z_441_4_0 + Z_441_7_0
   + Z_441_2_0 + Z_441_3_0 + Z_441_8_0 + Z_441_5_0 + Z_441_1_0 <= 1
 constraint2_4411: Z_441_0_1 + Z_441_6_1 + Z_441_4_1 + Z_441_7_1
   + Z_441_2_1 + Z_441_3_1 + Z_441_8_1 + Z_441_5_1 + Z_441_1_1 <= 1
 constraint2_4412: Z_441_0_2 + Z_441_6_2 + Z_441_4_2 + Z_441_7_2
   + Z_441_2_2 + Z_441_3_2 + Z_441_8_2 + Z_441_5_2 + Z_441_1_2 <= 1
 constraint2_4413: Z_441_0_3 + Z_441_6_3 + Z_441_4_3 + Z_441_7_3
   + Z_441_2_3 + Z_441_3_3 + Z_441_8_3 + Z_441_5_3 + Z_441_1_3 <= 1
 constraint2_2380: Z_238_0_0 <= 1
 constraint2_2381: Z_238_0_1 <= 1
 constraint2_2382: Z_238_0_2 <= 1
 constraint2_2383: Z_238_0_3 <= 1
 constraint2_7210: Z_721_0_0 <= 1
 constraint2_7211: Z_721_0_1 <= 1
 constraint2_7212: Z_721_0_2 <= 1
 constraint2_7213: Z_721_0_3 <= 1
 constraint2_610: Z_61_0_0 <= 1
 constraint2_611: Z_61_0_1 <= 1
 constraint2_612: Z_61_0_2 <= 1
 constraint2_613: Z_61_0_3 <= 1
 constraint2_2640: Z_264_0_0 <= 1
 constraint2_2641: Z_264_0_1 <= 1
 constraint2_2642: Z_264_0_2 <= 1
 constraint2_2643: Z_264_0_3 <= 1
 constraint2_7060: Z_706_3_0 + Z_706_2_0 + Z_706_0_0 + Z_706_1_0 <= 1
 constraint2_7061: Z_706_3_1 + Z_706_2_1 + Z_706_0_1 + Z_706_1_1 <= 1
 constraint2_7062: Z_706_3_2 + Z_706_2_2 + Z_706_0_2 + Z_706_1_2 <= 1
 constraint2_7063: Z_706_3_3 + Z_706_2_3 + Z_706_0_3 + Z_706_1_3 <= 1
 constraint2_6320: Z_632_7_0 + Z_632_2_0 + Z_632_6_0 + Z_632_1_0
   + Z_632_0_0 + Z_632_8_0 + Z_632_3_0 + Z_632_5_0 + Z_632_4_0 <= 1
 constraint2_6321: Z_632_7_1 + Z_632_2_1 + Z_632_6_1 + Z_632_1_1
   + Z_632_0_1 + Z_632_8_1 + Z_632_3_1 + Z_632_5_1 + Z_632_4_1 <= 1
 constraint2_6322: Z_632_7_2 + Z_632_2_2 + Z_632_6_2 + Z_632_1_2
   + Z_632_0_2 + Z_632_8_2 + Z_632_3_2 + Z_632_5_2 + Z_632_4_2 <= 1
 constraint2_6323: Z_632_7_3 + Z_632_2_3 + Z_632_6_3 + Z_632_1_3
   + Z_632_0_3 + Z_632_8_3 + Z_632_3_3 + Z_632_5_3 + Z_632_4_3 <= 1
Bounds
Binaries
 Z_129_0_0 Z_129_0_1 Z_129_0_2 Z_129_0_3 Z_129_0_4 Z_202_0_0 Z_202_0_1
 Z_202_0_2 Z_202_0_3 Z_202_0_4 Z_363_0_0 Z_363_0_1 Z_363_0_2 Z_363_0_3
 Z_363_0_4 Z_363_2_0 Z_363_2_1 Z_363_2_2 Z_363_2_3 Z_363_2_4 Z_363_1_0
 Z_363_1_1 Z_363_1_2 Z_363_1_3 Z_363_1_4 Z_681_2_0 Z_681_2_1 Z_681_2_2
 Z_681_2_3 Z_681_2_4 Z_681_3_0 Z_681_3_1 Z_681_3_2 Z_681_3_3 Z_681_3_4
 Z_681_1_0 Z_681_1_1 Z_681_1_2 Z_681_1_3 Z_681_1_4 Z_549_0_0 Z_549_0_1
 Z_549_0_2 Z_549_0_3 Z_549_0_4 Z_329_0_0 Z_329_0_1 Z_329_0_2 Z_329_0_3
 Z_329_0_4 Z_659_0_0 Z_659_0_1 Z_659_0_2 Z_659_0_3 Z_659_0_4 Z_520_0_0
 Z_520_0_1 Z_520_0_2 Z_520_0_3 Z_520_0_4 Z_617_0_0 Z_617_0_1 Z_617_0_2
 Z_617_0_3 Z_617_0_4 Z_317_0_0 Z_317_0_1 Z_317_0_2 Z_317_0_3 Z_317_0_4
 Z_586_6_0 Z_586_6_1 Z_586_6_2 Z_586_6_3 Z_586_6_4 Z_586_5_0 Z_586_5_1
 Z_586_5_2 Z_586_5_3 Z_586_5_4 Z_586_4_0 Z_586_4_1 Z_586_4_2 Z_586_4_3
 Z_586_4_4 Z_586_2_0 Z_586_2_1 Z_586_2_2 Z_586_2_3 Z_586_2_4 Z_586_3_0
 Z_586_3_1 Z_586_3_2 Z_586_3_3 Z_586_3_4 Z_586_7_0 Z_586_7_1 Z_586_7_2
 Z_586_7_3 Z_586_7_4 Z_586_1_0 Z_586_1_1 Z_586_1_2 Z_586_1_3 Z_586_1_4
 Z_230_2_0 Z_230_2_1 Z_230_2_2 Z_230_2_3 Z_230_2_4 Z_230_15_0 Z_230_15_1
 Z_230_15_2 Z_230_15_3 Z_230_15_4 Z_230_14_0 Z_230_14_1 Z_230_14_2
 Z_230_14_3 Z_230_14_4 Z_230_3_0 Z_230_3_1 Z_230_3_2 Z_230_3_3 Z_230_3_4
 Z_230_1_0 Z_230_1_1 Z_230_1_2 Z_230_1_3 Z_230_1_4 Z_230_11_0 Z_230_11_1
 Z_230_11_2 Z_230_11_3 Z_230_11_4 Z_230_4_0 Z_230_4_1 Z_230_4_2 Z_230_4_3
 Z_230_4_4 Z_230_7_0 Z_230_7_1 Z_230_7_2 Z_230_7_3 Z_230_7_4 Z_230_5_0
 Z_230_5_1 Z_230_5_2 Z_230_5_3 Z_230_5_4 Z_230_9_0 Z_230_9_1 Z_230_9_2
 Z_230_9_3 Z_230_9_4 Z_230_6_0 Z_230_6_1 Z_230_6_2 Z_230_6_3 Z_230_6_4
 Z_230_8_0 Z_230_8_1 Z_230_8_2 Z_230_8_3 Z_230_8_4 Z_230_13_0 Z_230_13_1
 Z_230_13_2 Z_230_13_3 Z_230_13_4 Z_230_12_0 Z_230_12_1 Z_230_12_2
 Z_230_12_3 Z_230_12_4 Z_441_0_0 Z_441_0_1 Z_441_0_2 Z_441_0_3 Z_441_0_4
 Z_441_6_0 Z_441_6_1 Z_441_6_2 Z_441_6_3 Z_441_6_4 Z_441_4_0 Z_441_4_1
 Z_441_4_2 Z_441_4_3 Z_441_4_4 Z_441_7_0 Z_441_7_1 Z_441_7_2 Z_441_7_3
 Z_441_7_4 Z_441_2_0 Z_441_2_1 Z_441_2_2 Z_441_2_3 Z_441_2_4 Z_441_3_0
 Z_441_3_1 Z_441_3_2 Z_441_3_3 Z_441_3_4 Z_441_8_0 Z_441_8_1 Z_441_8_2
 Z_441_8_3 Z_441_8_4 Z_441_5_0 Z_441_5_1 Z_441_5_2 Z_441_5_3 Z_441_5_4
 Z_441_1_0 Z_441_1_1 Z_441_1_2 Z_441_1_3 Z_441_1_4 Z_238_0_0 Z_238_0_1
 Z_238_0_2 Z_238_0_3 Z_238_0_4 Z_721_0_0 Z_721_0_1 Z_721_0_2 Z_721_0_3
 Z_721_0_4 Z_61_0_0 Z_61_0_1 Z_61_0_2 Z_61_0_3 Z_61_0_4 Z_264_0_0 Z_264_0_1
 Z_264_0_2 Z_264_0_3 Z_264_0_4 Z_706_3_0 Z_706_3_1 Z_706_3_2 Z_706_3_3
 Z_706_3_4 Z_706_2_0 Z_706_2_1 Z_706_2_2 Z_706_2_3 Z_706_2_4 Z_706_0_0
 Z_706_0_1 Z_706_0_2 Z_706_0_3 Z_706_0_4 Z_706_1_0 Z_706_1_1 Z_706_1_2
 Z_706_1_3 Z_706_1_4 Z_632_7_0 Z_632_7_1 Z_632_7_2 Z_632_7_3 Z_632_7_4
 Z_632_2_0 Z_632_2_1 Z_632_2_2 Z_632_2_3 Z_632_2_4 Z_632_6_0 Z_632_6_1
 Z_632_6_2 Z_632_6_3 Z_632_6_4 Z_632_1_0 Z_632_1_1 Z_632_1_2 Z_632_1_3
 Z_632_1_4 Z_632_0_0 Z_632_0_1 Z_632_0_2 Z_632_0_3 Z_632_0_4 Z_632_8_0
 Z_632_8_1 Z_632_8_2 Z_632_8_3 Z_632_8_4 Z_632_3_0 Z_632_3_1 Z_632_3_2
 Z_632_3_3 Z_632_3_4 Z_632_5_0 Z_632_5_1 Z_632_5_2 Z_632_5_3 Z_632_5_4
 Z_632_4_0 Z_632_4_1 Z_632_4_2 Z_632_4_3 Z_632_4_4
End
